
Log for 'CPLEX' Clone_2 (V12.10.0.0) Sat Aug  5 11:10:59 2023

Tried aggregator 1 time.
LP Presolve eliminated 876 rows and 288 columns.
Aggregator did 987 substitutions.
Reduced LP has 1662 rows, 2044 columns, and 5930 nonzeros.
Presolve time = 0.02 sec. (4.18 ticks)
Symmetry aggregator did 949 additional substitutions.

Iteration log . . .
Iteration:     1    Scaled infeas =   31311052787.212505
Iteration:   150    Scaled infeas =    7661391663.010839
Iteration:   265    Scaled infeas =    3725112505.024961
Iteration:   390    Scaled infeas =    2151885791.148768
Iteration:   519    Scaled infeas =     605268308.846997
Iteration:   622    Scaled infeas =      52013922.137274
Switched to devex.
Iteration:   705    Objective     =    2407568744.669459
Iteration:   817    Objective     =     870794352.498490
Iteration:   935    Objective     =     507265248.766908
Removing shift (10).

Dual simplex solved model.


Log for 'CPLEX' Clone_2 (V12.10.0.0) Sat Aug  5 11:11:00 2023

Tried aggregator 1 time.
LP Presolve eliminated 943 rows and 1128 columns.
Aggregator did 451 substitutions.
Reduced LP has 1237 rows, 1786 columns, and 4971 nonzeros.
Presolve time = 0.03 sec. (3.45 ticks)
Symmetry aggregator did 731 additional substitutions.

Iteration log . . .
Iteration:     1    Scaled infeas =        190491.751978
Iteration:   116    Scaled infeas =          9771.009115
Iteration:   209    Scaled infeas =           647.939636
Switched to devex.
Iteration:   252    Objective     =            -0.008200
Iteration:   459    Objective     =            -0.035000
Iteration:   666    Objective     =            -0.049935
Iteration:   907    Objective     =            -0.060435
Iteration:  1132    Objective     =            -0.071484
Iteration:  1266    Objective     =            -0.086155

Primal crossover.
  Primal:  Fixing 5 variables.
        4 PMoves:  Infeasibility  0.00000000e+00  Objective -9.47000000e-02
        0 PMoves:  Infeasibility  0.00000000e+00  Objective -9.47000000e-02
  Primal:  Pushed 1, exchanged 4.
  Dual:  Fixing 18 variables.
       17 DMoves:  Infeasibility  0.00000000e+00  Objective -9.47000000e-02
        0 DMoves:  Infeasibility  0.00000000e+00  Objective -9.47000000e-02
  Dual:  Pushed 0, exchanged 18.
Switched to steepest-edge.
Advanced basis not built.

Dual simplex solved model.


Log for 'CPLEX' Clone_2 (V12.10.0.0) Sat Aug  5 11:11:03 2023

Tried aggregator 1 time.
LP Presolve eliminated 881 rows and 293 columns.
Aggregator did 985 substitutions.
Reduced LP has 1659 rows, 2041 columns, and 5914 nonzeros.
Presolve time = 0.03 sec. (4.21 ticks)
Symmetry aggregator did 949 additional substitutions.

Iteration log . . .
Iteration:     1    Scaled infeas =   36355301389.845833
Iteration:   144    Scaled infeas =    6955725103.398776
Iteration:   231    Scaled infeas =    4548997137.803078
Iteration:   340    Scaled infeas =    2810527653.565990
Iteration:   441    Scaled infeas =    1351657846.558489
Iteration:   564    Scaled infeas =     407203443.256460
Iteration:   670    Scaled infeas =      79155667.584565
Iteration:   779    Scaled infeas =       1338353.472935
Switched to devex.
Iteration:   817    Objective     =    3803315847.895668
Iteration:   942    Objective     =    1760577851.489280
Iteration:  1052    Objective     =     981785351.804873
Iteration:  1165    Objective     =     550944581.082535
Iteration:  1265    Objective     =     342744066.845277
Removing shift (9).

Primal crossover.
  Primal:  Fixed no variables.
  Dual:  Fixing 111 variables.
      110 DMoves:  Infeasibility  5.93969318e-15  Objective  2.93516305e+08

Dual simplex solved model.


Log for 'CPLEX' Clone_2 (V12.10.0.0) Sat Aug  5 11:11:03 2023

Tried aggregator 1 time.
LP Presolve eliminated 2950 rows and 2603 columns.
Aggregator did 256 substitutions.
Reduced LP has 319 rows, 460 columns, and 1641 nonzeros.
Presolve time = 0.02 sec. (2.52 ticks)

Iteration log . . .
Iteration:     1    Scaled infeas =   10430046333.716658
Iteration:    79    Scaled infeas =    1256452602.229517
Iteration:   159    Scaled infeas =     373679619.983081
Switched to devex.
Iteration:   237    Scaled infeas =      50083605.376803
Iteration:   298    Objective     =     467513387.931291
Removing shift (3).

Dual simplex solved model.


Log for 'CPLEX' Clone_2 (V12.10.0.0) Sat Aug  5 11:11:04 2023

Tried aggregator 1 time.
LP Presolve eliminated 2950 rows and 2604 columns.
Aggregator did 256 substitutions.
Reduced LP has 319 rows, 459 columns, and 1637 nonzeros.
Presolve time = 0.02 sec. (2.53 ticks)

Iteration log . . .
Iteration:     1    Scaled infeas =    9550502723.174988
Iteration:    69    Scaled infeas =    1043539175.464779
Iteration:   140    Scaled infeas =     134412407.943427
Switched to devex.
Iteration:   215    Scaled infeas =      17719783.439523
Iteration:   239    Objective     =     101298825.724840
Removing shift (3).

Dual simplex solved model.


Log for 'CPLEX' Clone_2 (V12.10.0.0) Sat Aug  5 11:11:04 2023

Tried aggregator 1 time.
LP Presolve eliminated 2959 rows and 2616 columns.
Aggregator did 250 substitutions.
Reduced LP has 316 rows, 453 columns, and 1624 nonzeros.
Presolve time = 0.02 sec. (2.51 ticks)

Iteration log . . .
Iteration:     1    Scaled infeas =   10067385394.024996
Iteration:    79    Scaled infeas =    1718265707.404614
Iteration:   146    Scaled infeas =     721392097.090221
Switched to devex.
Iteration:   226    Scaled infeas =      76087736.064897
Iteration:   271    Objective     =     496081481.919118

Dual simplex solved model.


Log for 'CPLEX' Clone_2 (V12.10.0.0) Sat Aug  5 11:11:09 2023

Tried aggregator 1 time.
LP Presolve eliminated 2971 rows and 2626 columns.
Aggregator did 248 substitutions.
Reduced LP has 317 rows, 453 columns, and 1621 nonzeros.
Presolve time = 0.00 sec. (2.51 ticks)

Iteration log . . .
Iteration:     1    Scaled infeas =   14379755460.029161
Iteration:    81    Scaled infeas =    2177190955.871973
Iteration:   144    Scaled infeas =     717413734.917896
Switched to devex.
Iteration:   215    Scaled infeas =     194511855.095541
Iteration:   281    Scaled infeas =      14667495.072075
Iteration:   310    Objective     =    1164286216.801609
Removing shift (2).

Dual simplex solved model.


Log for 'CPLEX' Clone_2 (V12.10.0.0) Sat Aug  5 11:11:10 2023

Tried aggregator 1 time.
LP Presolve eliminated 2962 rows and 2617 columns.
Aggregator did 253 substitutions.
Reduced LP has 321 rows, 457 columns, and 1637 nonzeros.
Presolve time = 0.02 sec. (2.52 ticks)

Iteration log . . .
Iteration:     1    Scaled infeas =   12727892813.524998
Iteration:    82    Scaled infeas =    1669229781.655354
Iteration:   149    Scaled infeas =     218964872.377995
Switched to devex.
Iteration:   230    Scaled infeas =      42351850.424961
Iteration:   304    Scaled infeas =      12504804.997067

Dual simplex solved model.


Log for 'CPLEX' Clone_2 (V12.10.0.0) Sat Aug  5 11:11:10 2023

Tried aggregator 1 time.
LP Presolve eliminated 2962 rows and 2618 columns.
Aggregator did 253 substitutions.
Reduced LP has 321 rows, 456 columns, and 1633 nonzeros.
Presolve time = 0.00 sec. (2.52 ticks)

Iteration log . . .
Iteration:     1    Scaled infeas =   10107830990.199989
Iteration:    73    Scaled infeas =    1649219132.465071
Iteration:   142    Scaled infeas =     378918820.808486
Switched to devex.
Iteration:   226    Scaled infeas =      14155774.670097
Iteration:   248    Objective     =     208650728.810700

Dual simplex solved model.


Log for 'CPLEX' Clone_2 (V12.10.0.0) Sat Aug  5 11:11:10 2023

Tried aggregator 1 time.
LP Presolve eliminated 2962 rows and 2617 columns.
Aggregator did 253 substitutions.
Reduced LP has 321 rows, 457 columns, and 1637 nonzeros.
Presolve time = 0.02 sec. (2.52 ticks)

Iteration log . . .
Iteration:     1    Scaled infeas =   12727892813.524998
Iteration:    82    Scaled infeas =    1669229781.655354
Iteration:   149    Scaled infeas =     218964872.377995
Switched to devex.
Iteration:   230    Scaled infeas =      42351850.424961
Iteration:   304    Scaled infeas =      12504804.997067
Iteration:   319    Objective     =     209736471.054220
Advanced basis not built.

Dual simplex solved model.


Log for 'CPLEX' Clone_2 (V12.10.0.0) Sat Aug  5 13:25:46 2023

Tried aggregator 1 time.
LP Presolve eliminated 876 rows and 288 columns.
Aggregator did 987 substitutions.
Reduced LP has 1662 rows, 2044 columns, and 5930 nonzeros.
Presolve time = 0.02 sec. (4.18 ticks)
Symmetry aggregator did 949 additional substitutions.

Iteration log . . .
Iteration:     1    Scaled infeas =   31311052787.212505
Iteration:   150    Scaled infeas =    7661391663.010839
Iteration:   265    Scaled infeas =    3725112505.024961
Iteration:   390    Scaled infeas =    2151885791.148768
Iteration:   519    Scaled infeas =     605268308.846997
Iteration:   622    Scaled infeas =      52013922.137274
Switched to devex.
Iteration:   705    Objective     =    2407568744.669459
Removing shift (10).

Dual simplex solved model.


Log for 'CPLEX' Clone_2 (V12.10.0.0) Sat Aug  5 13:25:47 2023

Tried aggregator 1 time.
LP Presolve eliminated 943 rows and 1128 columns.
Aggregator did 451 substitutions.
Reduced LP has 1237 rows, 1786 columns, and 4971 nonzeros.
Presolve time = 0.02 sec. (3.45 ticks)
Symmetry aggregator did 731 additional substitutions.

Iteration log . . .
Iteration:     1    Scaled infeas =        190491.751978
Iteration:   116    Scaled infeas =          9771.009115
Iteration:   209    Scaled infeas =           647.939636
Switched to devex.
Iteration:   252    Objective     =            -0.008200
Iteration:   459    Objective     =            -0.035000
Iteration:   666    Objective     =            -0.049935
Iteration:   907    Objective     =            -0.060435
Iteration:  1132    Objective     =            -0.071484

Dual simplex solved model.


Log for 'CPLEX' Clone_2 (V12.10.0.0) Sat Aug  5 13:25:51 2023

Tried aggregator 1 time.
LP Presolve eliminated 881 rows and 293 columns.
Aggregator did 985 substitutions.
Reduced LP has 1659 rows, 2041 columns, and 5914 nonzeros.
Presolve time = 0.03 sec. (4.21 ticks)
Symmetry aggregator did 949 additional substitutions.

Iteration log . . .
Iteration:     1    Scaled infeas =   36355301389.845833
Iteration:   144    Scaled infeas =    6955725103.398776
Iteration:   231    Scaled infeas =    4548997137.803078
Iteration:   340    Scaled infeas =    2810527653.565990
Iteration:   441    Scaled infeas =    1351657846.558489
Iteration:   564    Scaled infeas =     407203443.256460
Iteration:   670    Scaled infeas =      79155667.584565
Iteration:   779    Scaled infeas =       1338353.472935
Switched to devex.
Iteration:   817    Objective     =    3803315847.895668
Iteration:   942    Objective     =    1760577851.489280
Iteration:  1052    Objective     =     981785351.804873
Iteration:  1165    Objective     =     550944581.082535
Removing shift (9).

Dual simplex solved model.


Log for 'CPLEX' Clone_2 (V12.10.0.0) Sat Aug  5 13:25:51 2023

Tried aggregator 1 time.
LP Presolve eliminated 2950 rows and 2603 columns.
Aggregator did 256 substitutions.
Reduced LP has 319 rows, 460 columns, and 1641 nonzeros.
Presolve time = 0.02 sec. (2.52 ticks)

Iteration log . . .
Iteration:     1    Scaled infeas =   10430046333.716658
Iteration:    79    Scaled infeas =    1256452602.229517
Iteration:   159    Scaled infeas =     373679619.983081
Switched to devex.
Iteration:   237    Scaled infeas =      50083605.376803
Iteration:   298    Objective     =     467513387.931291
Removing shift (3).

Dual simplex solved model.


Log for 'CPLEX' Clone_2 (V12.10.0.0) Sat Aug  5 13:25:52 2023

Tried aggregator 1 time.
LP Presolve eliminated 2950 rows and 2604 columns.
Aggregator did 256 substitutions.
Reduced LP has 319 rows, 459 columns, and 1637 nonzeros.
Presolve time = 0.02 sec. (2.53 ticks)

Iteration log . . .
Iteration:     1    Scaled infeas =    9550502723.174988
Iteration:    69    Scaled infeas =    1043539175.464779
Iteration:   140    Scaled infeas =     134412407.943427
Switched to devex.
Iteration:   215    Scaled infeas =      17719783.439523
Iteration:   239    Objective     =     101298825.724840
Removing shift (3).

Dual simplex solved model.


Log for 'CPLEX' Clone_2 (V12.10.0.0) Sat Aug  5 13:25:52 2023

Tried aggregator 1 time.
LP Presolve eliminated 2959 rows and 2616 columns.
Aggregator did 250 substitutions.
Reduced LP has 316 rows, 453 columns, and 1624 nonzeros.
Presolve time = 0.00 sec. (2.51 ticks)

Iteration log . . .
Iteration:     1    Scaled infeas =   10067385394.024996
Iteration:    79    Scaled infeas =    1718265707.404614
Iteration:   146    Scaled infeas =     721392097.090221
Switched to devex.
Iteration:   226    Scaled infeas =      76087736.064897
Iteration:   271    Objective     =     496081481.919118

Dual simplex solved model.


Log for 'CPLEX' Clone_2 (V12.10.0.0) Sat Aug  5 13:25:56 2023

Tried aggregator 1 time.
LP Presolve eliminated 2971 rows and 2626 columns.
Aggregator did 248 substitutions.
Reduced LP has 317 rows, 453 columns, and 1621 nonzeros.
Presolve time = 0.02 sec. (2.51 ticks)

Iteration log . . .
Iteration:     1    Scaled infeas =   14379755460.029161
Iteration:    81    Scaled infeas =    2177190955.871973
Iteration:   144    Scaled infeas =     717413734.917896
Switched to devex.
Iteration:   215    Scaled infeas =     194511855.095541
Iteration:   281    Scaled infeas =      14667495.072075
Iteration:   310    Objective     =    1164286216.801609
Removing shift (2).
Advanced basis not built.

Dual simplex solved model.


Log for 'CPLEX' Clone_2 (V12.10.0.0) Sat Aug  5 13:25:56 2023

Tried aggregator 1 time.
LP Presolve eliminated 2962 rows and 2617 columns.
Aggregator did 253 substitutions.
Reduced LP has 321 rows, 457 columns, and 1637 nonzeros.
Presolve time = 0.02 sec. (2.52 ticks)

Iteration log . . .
Iteration:     1    Scaled infeas =   12727892813.524998
Iteration:    82    Scaled infeas =    1669229781.655354
Iteration:   149    Scaled infeas =     218964872.377995
Switched to devex.
Iteration:   230    Scaled infeas =      42351850.424961
Iteration:   304    Scaled infeas =      12504804.997067
Iteration:   319    Objective     =     209736471.054220

Dual simplex solved model.


Log for 'CPLEX' Clone_2 (V12.10.0.0) Sat Aug  5 13:25:56 2023

Tried aggregator 1 time.
LP Presolve eliminated 2962 rows and 2618 columns.
Aggregator did 253 substitutions.
Reduced LP has 321 rows, 456 columns, and 1633 nonzeros.
Presolve time = 0.02 sec. (2.52 ticks)

Iteration log . . .
Iteration:     1    Scaled infeas =   10107830990.199989
Iteration:    73    Scaled infeas =    1649219132.465071
Iteration:   142    Scaled infeas =     378918820.808486
Switched to devex.
Iteration:   226    Scaled infeas =      14155774.670097
Iteration:   248    Objective     =     208650728.810700

Dual simplex solved model.


Log for 'CPLEX' Clone_2 (V12.10.0.0) Sat Aug  5 13:25:56 2023

Tried aggregator 1 time.
LP Presolve eliminated 2962 rows and 2617 columns.
Aggregator did 253 substitutions.
Reduced LP has 321 rows, 457 columns, and 1637 nonzeros.
Presolve time = 0.02 sec. (2.52 ticks)

Iteration log . . .
Iteration:     1    Scaled infeas =   12727892813.524998
Iteration:    82    Scaled infeas =    1669229781.655354
Iteration:   149    Scaled infeas =     218964872.377995
Switched to devex.
Iteration:   230    Scaled infeas =      42351850.424961
Iteration:   304    Scaled infeas =      12504804.997067
Iteration:   319    Objective     =     209736471.054220

Dual simplex solved model.

